
Gurobi 11.0.0 (linux64) logging started Wed Apr 10 21:41:19 2024

Set parameter LogFile to value "/lustre1/scratch/348/vsc34888/JointResearch/05.Models/06.Benchmarking/B.Operation_cost/RTS24_ByStages_nc50/openStarNet_RTS24_ByStages_nc50.log"
Set parameter Method to value 2
Set parameter MIPFocus to value 1
Set parameter Presolve to value 2
Set parameter RINS to value 100
Set parameter MIPGap to value 0.01
Set parameter Threads to value 36
Set parameter TimeLimit to value 259200
Set parameter IterationLimit to value 760000000
Gurobi Optimizer version 11.0.0 build v11.0.0rc2 (linux64 - "Rocky Linux 8.8 (Green Obsidian)")

CPU model: Intel(R) Xeon(R) Gold 6140 CPU @ 2.30GHz, instruction set [SSE2|AVX|AVX2|AVX512]
Thread count: 36 physical cores, 36 logical processors, using up to 36 threads

Optimize a model with 19453 rows, 11702 columns and 52065 nonzeros
Model fingerprint: 0x3bacd9ec
Variable types: 11672 continuous, 30 integer (30 binary)
Coefficient statistics:
  Matrix range     [3e-02, 1e+03]
  Objective range  [1e+00, 1e+00]
  Bounds range     [4e-04, 3e+00]
  RHS range        [4e-04, 3e+00]
Presolve removed 10439 rows and 5516 columns
Presolve time: 0.10s
Presolved: 9014 rows, 6186 columns, 31770 nonzeros
Variable types: 6156 continuous, 30 integer (30 binary)
Found heuristic solution: objective 369.0343265
Root relaxation presolved: 9014 rows, 6186 columns, 31770 nonzeros

Root barrier log...

Ordering time: 0.00s

Barrier statistics:
 Dense cols : 30
 AA' NZ     : 6.668e+04
 Factor NZ  : 1.740e+05 (roughly 8 MB of memory)
 Factor Ops : 3.704e+06 (less than 1 second per iteration)
 Threads    : 36

                  Objective                Residual
Iter       Primal          Dual         Primal    Dual     Compl     Time
   0   7.87905648e+05 -9.19819973e+07  6.18e+00 4.47e+02  1.41e+04     0s
   1   1.31763716e+05 -2.63271257e+07  8.25e-01 1.87e-09  2.05e+03     0s
   2   4.22716401e+04 -4.07840557e+06  9.62e-02 2.65e-09  2.43e+02     0s
   3   2.41186514e+04 -3.59802362e+05  6.32e-04 2.17e-10  2.02e+01     0s
   4   7.06987173e+03 -6.79346484e+04  5.78e-06 2.96e-11  3.94e+00     0s
   5   2.02402470e+03 -1.63775667e+04  1.46e-06 4.32e-12  9.67e-01     0s
   6   8.13320437e+02 -3.52532649e+03  3.06e-07 1.82e-12  2.28e-01     0s
   7   4.57121413e+02 -7.31816664e+02  8.92e-08 1.82e-12  6.25e-02     0s
   8   3.00197242e+02 -1.57324950e+02  2.90e-08 1.82e-12  2.41e-02     0s
   9   2.56350501e+02  3.73369886e+01  1.65e-08 1.82e-12  1.15e-02     0s
  10   2.21629359e+02  1.25257485e+02  7.71e-09 1.82e-12  5.07e-03     0s
  11   2.01786486e+02  1.69681796e+02  3.32e-09 1.82e-12  1.69e-03     0s
  12   1.93717951e+02  1.78923635e+02  1.63e-09 1.82e-12  7.78e-04     0s
  13   1.90612120e+02  1.81638766e+02  9.85e-10 1.82e-12  4.72e-04     0s
  14   1.88675800e+02  1.83403468e+02  5.87e-10 9.09e-13  2.77e-04     0s
  15   1.87513992e+02  1.84346988e+02  3.41e-10 9.09e-13  1.66e-04     0s
  16   1.86588997e+02  1.85114409e+02  1.47e-10 1.82e-12  7.75e-05     0s
  17   1.86316493e+02  1.85512651e+02  8.82e-11 1.82e-12  4.23e-05     0s
  18   1.86037377e+02  1.85800764e+02  2.75e-11 1.82e-12  1.24e-05     0s
  19   1.85940695e+02  1.85867948e+02  9.11e-11 1.82e-12  3.82e-06     0s
  20   1.85917131e+02  1.85903084e+02  9.14e-11 1.82e-12  7.38e-07     0s
  21   1.85909397e+02  1.85908804e+02  1.32e-10 3.64e-12  3.12e-08     0s
  22   1.85909208e+02  1.85909193e+02  8.97e-11 3.86e-12  7.93e-10     0s
  23   1.85909202e+02  1.85909202e+02  7.72e-11 3.68e-12  3.56e-12     0s

Barrier solved model in 23 iterations and 0.39 seconds (0.30 work units)
Optimal objective 1.85909202e+02


Root relaxation: objective 1.859092e+02, 1378 iterations, 0.27 seconds (0.13 work units)

    Nodes    |    Current Node    |     Objective Bounds      |     Work
 Expl Unexpl |  Obj  Depth IntInf | Incumbent    BestBd   Gap | It/Node Time

     0     0  185.90920    0   21  369.03433  185.90920  49.6%     -    0s
H    0     0                     278.3617757  189.06183  32.1%     -    0s
     0     0  189.06183    0   17  278.36178  189.06183  32.1%     -    0s
     0     0  189.15725    0   18  278.36178  189.15725  32.0%     -    1s
     0     0  189.15884    0   18  278.36178  189.15884  32.0%     -    1s
     0     0  189.15884    0   18  278.36178  189.15884  32.0%     -    1s
     0     0  189.74681    0   19  278.36178  189.74681  31.8%     -    1s
H    0     0                     261.9439845  189.83186  27.5%     -    1s
     0     0  189.83186    0   19  261.94398  189.83186  27.5%     -    1s
     0     0  189.84060    0   19  261.94398  189.84060  27.5%     -    1s
     0     0  189.84079    0   19  261.94398  189.84079  27.5%     -    1s
     0     0  189.92074    0   17  261.94398  189.92074  27.5%     -    1s
     0     0  190.79701    0   19  261.94398  190.79701  27.2%     -    1s
     0     0  190.79701    0   19  261.94398  190.79701  27.2%     -    1s
     0     0  190.79701    0   19  261.94398  190.79701  27.2%     -    1s
     0     0  190.85716    0   19  261.94398  190.85716  27.1%     -    2s
     0     0  191.23829    0   19  261.94398  191.23829  27.0%     -    2s
     0     0  191.23829    0   19  261.94398  191.23829  27.0%     -    2s
     0     0  192.03290    0   20  261.94398  192.03290  26.7%     -    3s
H    0     0                     222.6195801  192.03290  13.7%     -   20s
     0     2  192.03290    0   20  222.61958  192.03290  13.7%     -   20s
H   99   134                     221.7954101  196.10971  11.6%   503   35s
H  101   134                     221.4283068  196.10971  11.4%   499   35s
H  102   134                     221.2868354  196.10971  11.4%   499   35s
  1352   601     cutoff   14       221.28684  199.41784  9.88%   264   47s
  3053   981  212.69878   13   10  221.28684  203.03614  8.25%   226   50s
* 4993  1269              24     221.2439915  207.50495  6.21%   205   52s
  5487  1333     cutoff   11       221.24399  207.65499  6.14%   201   64s
H 5594  1333                     221.1879965  207.65499  6.12%   199   64s
  5866  1392     cutoff   15       221.18800  209.69745  5.19%   197   65s
  6290  1480  216.12537   15    7  221.18800  209.80086  5.15%   195   78s
  6765  1665     cutoff   19       221.18800  210.48113  4.84%   191   80s
  7320  1663  214.15434   14   20  221.18800  210.48113  4.84%   188   93s
  7322  1664  217.41386   16   19  221.18800  210.48113  4.84%   188   95s
  7335  1673  215.55075   13   19  221.18800  210.48113  4.84%   188  109s
  7398  1746  210.48113   15   14  221.18800  210.48113  4.84%   192  110s
  7434  1766  210.48113   16   13  221.18800  210.48113  4.84%   192  122s
  8352  1809  213.43543   22   10  221.18800  210.48113  4.84%   198  125s
  8445  1785     cutoff   23       221.18800  210.48113  4.84%   198  131s
  9693  1662  216.47270   22    7  221.18800  210.48113  4.84%   197  138s
 11169  1418  213.10887   22   10  221.18800  210.48113  4.84%   191  140s
 17881  1324     cutoff   25       221.18800  215.89067  2.39%   165  149s
 18537  1218     cutoff   23       221.18800  216.27341  2.22%   163  150s
 20095  1107     cutoff   22       221.18800  217.01860  1.89%   158  158s
 20561   904     cutoff   25       221.18800  217.26800  1.77%   157  162s

Cutting planes:
  Learned: 1
  Gomory: 2
  Implied bound: 624
  MIR: 203
  Flow cover: 391
  Relax-and-lift: 59

Explored 23705 nodes (3475286 simplex iterations) in 163.49 seconds (174.75 work units)
Thread count was 36 (of 36 available processors)

Solution count 9: 221.188 221.244 221.287 ... 369.034

Optimal solution found (tolerance 1.00e-02)
Best objective 2.211879964684e+02, best bound 2.203601441756e+02, gap 0.3743%

Gurobi 11.0.0 (linux64) logging started Wed Apr 10 21:44:04 2024

Set parameter LogFile to value "/lustre1/scratch/348/vsc34888/JointResearch/05.Models/06.Benchmarking/B.Operation_cost/RTS24_ByStages_nc50/openStarNet_RTS24_ByStages_nc50.log"
Set parameter Method to value 2
Set parameter MIPFocus to value 1
Set parameter Presolve to value 2
Set parameter RINS to value 100
Set parameter MIPGap to value 0.01
Set parameter Threads to value 36
Set parameter TimeLimit to value 259200
Set parameter IterationLimit to value 760000000
Gurobi Optimizer version 11.0.0 build v11.0.0rc2 (linux64 - "Rocky Linux 8.8 (Green Obsidian)")

CPU model: Intel(R) Xeon(R) Gold 6140 CPU @ 2.30GHz, instruction set [SSE2|AVX|AVX2|AVX512]
Thread count: 36 physical cores, 36 logical processors, using up to 36 threads

Optimize a model with 19453 rows, 11672 columns and 46035 nonzeros
Model fingerprint: 0xeafd6f2f
Coefficient statistics:
  Matrix range     [3e-02, 1e+03]
  Objective range  [1e+00, 1e+00]
  Bounds range     [4e-04, 3e+00]
  RHS range        [4e-04, 5e+01]
Presolve removed 16495 rows and 6710 columns
Presolve time: 0.03s
Presolved: 2958 rows, 5050 columns, 13714 nonzeros

Ordering time: 0.00s

Barrier statistics:
 AA' NZ     : 7.439e+03
 Factor NZ  : 2.285e+04 (roughly 2 MB of memory)
 Factor Ops : 3.053e+05 (less than 1 second per iteration)
 Threads    : 1

                  Objective                Residual
Iter       Primal          Dual         Primal    Dual     Compl     Time
   0   8.01597393e+06 -5.09206838e+07  3.31e+01 5.27e+03  2.00e+05     0s
   1   4.51556598e+05 -4.63015810e+07  1.93e+00 6.82e+01  1.64e+04     0s
   2   1.16117900e+05 -1.61605524e+07  4.73e-01 2.13e-10  3.51e+03     0s
   3   5.01709592e+04 -5.39515383e+06  8.64e-02 1.23e-10  8.16e+02     0s
   4   3.28751310e+04 -9.27523978e+05  6.92e-03 8.73e-11  1.24e+02     0s
   5   2.16375272e+04 -2.01689902e+05  3.42e-11 2.29e-10  2.83e+01     0s
   6   1.02002290e+04 -6.91020465e+04  1.17e-11 8.00e-11  1.01e+01     0s
   7   2.18315164e+03 -1.72045205e+04  3.92e-12 2.18e-11  2.46e+00     0s
   8   6.71790300e+02 -4.99742159e+03  6.59e-12 7.28e-12  7.19e-01     0s
   9   4.57597120e+02 -2.23953245e+03  7.06e-12 1.46e-11  3.42e-01     0s
  10   3.64346113e+02 -5.52704206e+02  2.90e-12 1.46e-11  1.16e-01     0s
  11   3.17412280e+02 -1.53745668e+02  4.85e-12 1.46e-11  5.97e-02     0s
  12   2.80597748e+02  1.01252908e+01  3.15e-12 1.46e-11  3.43e-02     0s
  13   2.47068690e+02  1.49373694e+02  4.41e-12 1.46e-11  1.24e-02     0s
  14   2.29054662e+02  2.07493323e+02  5.19e-12 1.46e-11  2.73e-03     0s
  15   2.23855457e+02  2.18311110e+02  2.92e-11 7.28e-12  7.03e-04     0s
  16   2.22278638e+02  2.20242222e+02  1.26e-11 7.28e-12  2.58e-04     0s
  17   2.21444099e+02  2.21054972e+02  4.81e-12 1.46e-11  4.93e-05     0s
  18   2.21189733e+02  2.21170780e+02  6.21e-12 1.46e-11  2.40e-06     0s
  19   2.21188108e+02  2.21185445e+02  1.50e-11 7.28e-12  3.37e-07     0s
  20   2.21188009e+02  2.21187964e+02  4.81e-12 2.18e-11  5.67e-09     0s
  21   2.21187996e+02  2.21187996e+02  2.30e-12 7.28e-12  5.67e-12     0s
  22   2.21187996e+02  2.21187996e+02  3.01e-12 3.64e-12  5.67e-15     0s

Barrier solved model in 22 iterations and 0.07 seconds (0.06 work units)
Optimal objective 2.21187996e+02

Crossover log...

     536 DPushes remaining with DInf 0.0000000e+00                 0s
       0 DPushes remaining with DInf 0.0000000e+00                 0s

     190 PPushes remaining with PInf 0.0000000e+00                 0s
       0 PPushes remaining with PInf 0.0000000e+00                 0s

  Push phase complete: Pinf 0.0000000e+00, Dinf 1.5536331e-12      0s

Iteration    Objective       Primal Inf.    Dual Inf.      Time
     205    2.2118800e+02   0.000000e+00   0.000000e+00      0s

Use crossover to convert LP symmetric solution to basic solution...
Crossover log...

       0 DPushes remaining with DInf 0.0000000e+00                 0s

      98 PPushes remaining with PInf 0.0000000e+00                 0s
       0 PPushes remaining with PInf 0.0000000e+00                 0s

  Push phase complete: Pinf 0.0000000e+00, Dinf 1.8849317e-12      0s

Iteration    Objective       Primal Inf.    Dual Inf.      Time
     318    2.2118800e+02   0.000000e+00   0.000000e+00      0s

Solved in 318 iterations and 0.10 seconds (0.08 work units)
Optimal objective  2.211879965e+02
